@SET sim_name RESORA09
@SET xyz_write 1
@SET restart_write 10
@SET verb MEDIUM

#-----------------------------------------------------------------------------------------

&GLOBAL
   PROJECT ${sim_name}
   RUN_TYPE GEO_OPT
   PRINT_LEVEL ${verb}
&END GLOBAL

&MOTION
 &GEO_OPT
  TYPE MINIMIZATION
  MAX_DR    1.0E-06
  MAX_FORCE 1.0E-08
  RMS_DR    1.0E-06
  RMS_FORCE 1.0E-08
  MAX_ITER 200000
  OPTIMIZER CG
  &CG
   RESTART_LIMIT 9.0E-01                # this is the default
  &END CG
 &END GEO_OPT
 &PRINT
  &RESTART                              # short history restart files; for unique, use RESTART_HISTORY
   BACKUP_COPIES 2
   &EACH
    GEO_OPT ${restart_write}
   &END EACH
  &END RESTART
  &RESTART_HISTORY
   &EACH
    GEO_OPT 0
   &END
  &END RESTART_HISTORY
  &TRAJECTORY                   # xyz snapshots
   ADD_LAST numeric
   FORMAT XYZ
   FILENAME xyz_preview_CG
   &EACH
    GEO_OPT ${xyz_write}
   &END EACH
  &END TRAJECTORY
 &END PRINT
&END MOTION

&FORCE_EVAL
   METHOD Quickstep
   &DFT
      BASIS_SET_FILE_NAME  GTH_BASIS_SETS
      POTENTIAL_FILE_NAME  POTENTIAL

      &POISSON
         PERIODIC XYZ
      &END POISSON

      &SCF
         SCF_GUESS ATOMIC
         EPS_SCF 1.0E-6
         MAX_SCF 300
      &END SCF
      &XC
         &XC_FUNCTIONAL PBE
         &END XC_FUNCTIONAL
      &END XC
   &END DFT

   @INCLUDE subsys.include

&END FORCE_EVAL
